AES/1_5_4/ssaes_r1-20_c5_rw1_e4_f0_k1-20_aes_min_box_aes_mc_bidirectional/ExperimentMinisat_r6_k1cnf_2011-10-29-160234/Result
WARNING: for repeatability, setting FPU to use double precision
============================[ Problem Statistics ]=============================
|                                                                             |
|  Number of variables:           588                                         |
|  Number of clauses:            2312                                         |
|  Parse time:                   0.00 s                                       |
|  Eliminated clauses:           0.01 Mb                                      |
|  Simplification time:          0.00 s                                       |
|                                                                             |
=============================[ Search Statistics ]==============================
| Conflicts  |          ORIGINAL         |          LEARNT          | Progress |
|            |    Vars  Clauses Literals |    Limit  Clauses Lit/Cl |          |
================================================================================
|        100 |     384     1712     5672 |      627      100     15 | 10.885 % |
|        250 |     384     1712     5672 |      690      250     18 | 10.885 % |
|        475 |     384     1712     5672 |      759      475     19 | 10.885 % |
|        812 |     384     1712     5672 |      835      812     16 | 10.885 % |
|       1318 |     384     1712     5672 |      919      841     13 | 10.885 % |
|       2077 |     384     1712     5672 |     1010      564      9 | 10.885 % |
|       3216 |     384     1712     5672 |     1112      590      8 | 10.885 % |
|       4924 |     384     1712     5672 |     1223     1106     10 | 10.885 % |
|       7486 |     384     1712     5672 |     1345     1033      9 | 10.885 % |
|      11330 |     384     1712     5672 |     1480     1299     10 | 10.885 % |
|      17096 |     384     1712     5672 |     1628      808      7 | 10.885 % |
|      25745 |     384     1712     5672 |     1790      888      8 | 10.885 % |
|      38719 |     384     1712     5672 |     1970     1701     10 | 10.885 % |
|      58180 |     384     1712     5672 |     2167     1651     11 | 10.885 % |
|      87372 |     384     1712     5672 |     2383     1587     10 | 10.885 % |
|     131161 |     384     1712     5672 |     2622     2156     11 | 10.885 % |
|     196845 |     384     1712     5672 |     2884     1548     10 | 10.885 % |
|     295371 |     384     1712     5672 |     3172     2233     11 | 10.885 % |
===============================================================================
restarts              : 935
conflicts             : 387859         (38626 /sec)
decisions             : 433957         (0.00 % random) (43216 /sec)
propagations          : 46732060       (4653905 /sec)
conflict literals     : 5530514        (36.83 % deleted)
Memory used           : 8.00 MB
CPU time              : 10.0415 s

SATISFIABLE
